p cnf 65 1275
-1 -27 0
-1 -28 0
-1 -29 0
-1 -30 0
-1 -31 0
-2 -27 0
-2 -28 0
-2 -29 0
-2 -30 0
-2 -31 0
-3 -27 0
-3 -28 0
-3 -29 0
-3 -30 0
-3 -31 0
-4 -27 0
-4 -28 0
-4 -29 0
-4 -30 0
-4 -31 0
-5 -27 0
-5 -28 0
-5 -29 0
-5 -30 0
-5 -31 0
-1 -66 0
-1 -67 0
-1 -68 0
-1 -69 0
-1 -70 0
-2 -66 0
-2 -67 0
-2 -68 0
-2 -69 0
-2 -70 0
-3 -66 0
-3 -67 0
-3 -68 0
-3 -69 0
-3 -70 0
-4 -66 0
-4 -67 0
-4 -68 0
-4 -69 0
-4 -70 0
-5 -66 0
-5 -67 0
-5 -68 0
-5 -69 0
-5 -70 0
-1 -105 0
-1 -106 0
-1 -107 0
-1 -108 0
-1 -109 0
-2 -105 0
-2 -106 0
-2 -107 0
-2 -108 0
-2 -109 0
-3 -105 0
-3 -106 0
-3 -107 0
-3 -108 0
-3 -109 0
-4 -105 0
-4 -106 0
-4 -107 0
-4 -108 0
-4 -109 0
-5 -105 0
-5 -106 0
-5 -107 0
-5 -108 0
-5 -109 0
-14 -53 0
-14 -54 0
-14 -55 0
-14 -56 0
-14 -57 0
-15 -53 0
-15 -54 0
-15 -55 0
-15 -56 0
-15 -57 0
-16 -53 0
-16 -54 0
-16 -55 0
-16 -56 0
-16 -57 0
-17 -53 0
-17 -54 0
-17 -55 0
-17 -56 0
-17 -57 0
-18 -53 0
-18 -54 0
-18 -55 0
-18 -56 0
-18 -57 0
-14 -79 0
-14 -80 0
-14 -81 0
-14 -82 0
-14 -83 0
-15 -79 0
-15 -80 0
-15 -81 0
-15 -82 0
-15 -83 0
-16 -79 0
-16 -80 0
-16 -81 0
-16 -82 0
-16 -83 0
-17 -79 0
-17 -80 0
-17 -81 0
-17 -82 0
-17 -83 0
-18 -79 0
-18 -80 0
-18 -81 0
-18 -82 0
-18 -83 0
-14 -118 0
-14 -119 0
-14 -120 0
-14 -121 0
-14 -122 0
-15 -118 0
-15 -119 0
-15 -120 0
-15 -121 0
-15 -122 0
-16 -118 0
-16 -119 0
-16 -120 0
-16 -121 0
-16 -122 0
-17 -118 0
-17 -119 0
-17 -120 0
-17 -121 0
-17 -122 0
-18 -118 0
-18 -119 0
-18 -120 0
-18 -121 0
-18 -122 0
-27 -40 0
-27 -41 0
-27 -42 0
-27 -43 0
-27 -44 0
-28 -40 0
-28 -41 0
-28 -42 0
-28 -43 0
-28 -44 0
-29 -40 0
-29 -41 0
-29 -42 0
-29 -43 0
-29 -44 0
-30 -40 0
-30 -41 0
-30 -42 0
-30 -43 0
-30 -44 0
-31 -40 0
-31 -41 0
-31 -42 0
-31 -43 0
-31 -44 0
-27 -53 0
-27 -54 0
-27 -55 0
-27 -56 0
-27 -57 0
-28 -53 0
-28 -54 0
-28 -55 0
-28 -56 0
-28 -57 0
-29 -53 0
-29 -54 0
-29 -55 0
-29 -56 0
-29 -57 0
-30 -53 0
-30 -54 0
-30 -55 0
-30 -56 0
-30 -57 0
-31 -53 0
-31 -54 0
-31 -55 0
-31 -56 0
-31 -57 0
-27 -92 0
-27 -93 0
-27 -94 0
-27 -95 0
-27 -96 0
-28 -92 0
-28 -93 0
-28 -94 0
-28 -95 0
-28 -96 0
-29 -92 0
-29 -93 0
-29 -94 0
-29 -95 0
-29 -96 0
-30 -92 0
-30 -93 0
-30 -94 0
-30 -95 0
-30 -96 0
-31 -92 0
-31 -93 0
-31 -94 0
-31 -95 0
-31 -96 0
-27 -144 0
-27 -145 0
-27 -146 0
-27 -147 0
-27 -148 0
-28 -144 0
-28 -145 0
-28 -146 0
-28 -147 0
-28 -148 0
-29 -144 0
-29 -145 0
-29 -146 0
-29 -147 0
-29 -148 0
-30 -144 0
-30 -145 0
-30 -146 0
-30 -147 0
-30 -148 0
-31 -144 0
-31 -145 0
-31 -146 0
-31 -147 0
-31 -148 0
-40 -66 0
-40 -67 0
-40 -68 0
-40 -69 0
-40 -70 0
-41 -66 0
-41 -67 0
-41 -68 0
-41 -69 0
-41 -70 0
-42 -66 0
-42 -67 0
-42 -68 0
-42 -69 0
-42 -70 0
-43 -66 0
-43 -67 0
-43 -68 0
-43 -69 0
-43 -70 0
-44 -66 0
-44 -67 0
-44 -68 0
-44 -69 0
-44 -70 0
-40 -131 0
-40 -132 0
-40 -133 0
-40 -134 0
-40 -135 0
-41 -131 0
-41 -132 0
-41 -133 0
-41 -134 0
-41 -135 0
-42 -131 0
-42 -132 0
-42 -133 0
-42 -134 0
-42 -135 0
-43 -131 0
-43 -132 0
-43 -133 0
-43 -134 0
-43 -135 0
-44 -131 0
-44 -132 0
-44 -133 0
-44 -134 0
-44 -135 0
-40 -157 0
-40 -158 0
-40 -159 0
-40 -160 0
-40 -161 0
-41 -157 0
-41 -158 0
-41 -159 0
-41 -160 0
-41 -161 0
-42 -157 0
-42 -158 0
-42 -159 0
-42 -160 0
-42 -161 0
-43 -157 0
-43 -158 0
-43 -159 0
-43 -160 0
-43 -161 0
-44 -157 0
-44 -158 0
-44 -159 0
-44 -160 0
-44 -161 0
-53 -66 0
-53 -67 0
-53 -68 0
-53 -69 0
-53 -70 0
-54 -66 0
-54 -67 0
-54 -68 0
-54 -69 0
-54 -70 0
-55 -66 0
-55 -67 0
-55 -68 0
-55 -69 0
-55 -70 0
-56 -66 0
-56 -67 0
-56 -68 0
-56 -69 0
-56 -70 0
-57 -66 0
-57 -67 0
-57 -68 0
-57 -69 0
-57 -70 0
-53 -92 0
-53 -93 0
-53 -94 0
-53 -95 0
-53 -96 0
-54 -92 0
-54 -93 0
-54 -94 0
-54 -95 0
-54 -96 0
-55 -92 0
-55 -93 0
-55 -94 0
-55 -95 0
-55 -96 0
-56 -92 0
-56 -93 0
-56 -94 0
-56 -95 0
-56 -96 0
-57 -92 0
-57 -93 0
-57 -94 0
-57 -95 0
-57 -96 0
-53 -131 0
-53 -132 0
-53 -133 0
-53 -134 0
-53 -135 0
-54 -131 0
-54 -132 0
-54 -133 0
-54 -134 0
-54 -135 0
-55 -131 0
-55 -132 0
-55 -133 0
-55 -134 0
-55 -135 0
-56 -131 0
-56 -132 0
-56 -133 0
-56 -134 0
-56 -135 0
-57 -131 0
-57 -132 0
-57 -133 0
-57 -134 0
-57 -135 0
-66 -79 0
-66 -80 0
-66 -81 0
-66 -82 0
-66 -83 0
-67 -79 0
-67 -80 0
-67 -81 0
-67 -82 0
-67 -83 0
-68 -79 0
-68 -80 0
-68 -81 0
-68 -82 0
-68 -83 0
-69 -79 0
-69 -80 0
-69 -81 0
-69 -82 0
-69 -83 0
-70 -79 0
-70 -80 0
-70 -81 0
-70 -82 0
-70 -83 0
-66 -92 0
-66 -93 0
-66 -94 0
-66 -95 0
-66 -96 0
-67 -92 0
-67 -93 0
-67 -94 0
-67 -95 0
-67 -96 0
-68 -92 0
-68 -93 0
-68 -94 0
-68 -95 0
-68 -96 0
-69 -92 0
-69 -93 0
-69 -94 0
-69 -95 0
-69 -96 0
-70 -92 0
-70 -93 0
-70 -94 0
-70 -95 0
-70 -96 0
-66 -118 0
-66 -119 0
-66 -120 0
-66 -121 0
-66 -122 0
-67 -118 0
-67 -119 0
-67 -120 0
-67 -121 0
-67 -122 0
-68 -118 0
-68 -119 0
-68 -120 0
-68 -121 0
-68 -122 0
-69 -118 0
-69 -119 0
-69 -120 0
-69 -121 0
-69 -122 0
-70 -118 0
-70 -119 0
-70 -120 0
-70 -121 0
-70 -122 0
-66 -144 0
-66 -145 0
-66 -146 0
-66 -147 0
-66 -148 0
-67 -144 0
-67 -145 0
-67 -146 0
-67 -147 0
-67 -148 0
-68 -144 0
-68 -145 0
-68 -146 0
-68 -147 0
-68 -148 0
-69 -144 0
-69 -145 0
-69 -146 0
-69 -147 0
-69 -148 0
-70 -144 0
-70 -145 0
-70 -146 0
-70 -147 0
-70 -148 0
-79 -92 0
-79 -93 0
-79 -94 0
-79 -95 0
-79 -96 0
-80 -92 0
-80 -93 0
-80 -94 0
-80 -95 0
-80 -96 0
-81 -92 0
-81 -93 0
-81 -94 0
-81 -95 0
-81 -96 0
-82 -92 0
-82 -93 0
-82 -94 0
-82 -95 0
-82 -96 0
-83 -92 0
-83 -93 0
-83 -94 0
-83 -95 0
-83 -96 0
-79 -118 0
-79 -119 0
-79 -120 0
-79 -121 0
-79 -122 0
-80 -118 0
-80 -119 0
-80 -120 0
-80 -121 0
-80 -122 0
-81 -118 0
-81 -119 0
-81 -120 0
-81 -121 0
-81 -122 0
-82 -118 0
-82 -119 0
-82 -120 0
-82 -121 0
-82 -122 0
-83 -118 0
-83 -119 0
-83 -120 0
-83 -121 0
-83 -122 0
-79 -131 0
-79 -132 0
-79 -133 0
-79 -134 0
-79 -135 0
-80 -131 0
-80 -132 0
-80 -133 0
-80 -134 0
-80 -135 0
-81 -131 0
-81 -132 0
-81 -133 0
-81 -134 0
-81 -135 0
-82 -131 0
-82 -132 0
-82 -133 0
-82 -134 0
-82 -135 0
-83 -131 0
-83 -132 0
-83 -133 0
-83 -134 0
-83 -135 0
-79 -144 0
-79 -145 0
-79 -146 0
-79 -147 0
-79 -148 0
-80 -144 0
-80 -145 0
-80 -146 0
-80 -147 0
-80 -148 0
-81 -144 0
-81 -145 0
-81 -146 0
-81 -147 0
-81 -148 0
-82 -144 0
-82 -145 0
-82 -146 0
-82 -147 0
-82 -148 0
-83 -144 0
-83 -145 0
-83 -146 0
-83 -147 0
-83 -148 0
-92 -105 0
-92 -106 0
-92 -107 0
-92 -108 0
-92 -109 0
-93 -105 0
-93 -106 0
-93 -107 0
-93 -108 0
-93 -109 0
-94 -105 0
-94 -106 0
-94 -107 0
-94 -108 0
-94 -109 0
-95 -105 0
-95 -106 0
-95 -107 0
-95 -108 0
-95 -109 0
-96 -105 0
-96 -106 0
-96 -107 0
-96 -108 0
-96 -109 0
-92 -131 0
-92 -132 0
-92 -133 0
-92 -134 0
-92 -135 0
-93 -131 0
-93 -132 0
-93 -133 0
-93 -134 0
-93 -135 0
-94 -131 0
-94 -132 0
-94 -133 0
-94 -134 0
-94 -135 0
-95 -131 0
-95 -132 0
-95 -133 0
-95 -134 0
-95 -135 0
-96 -131 0
-96 -132 0
-96 -133 0
-96 -134 0
-96 -135 0
-105 -118 0
-105 -119 0
-105 -120 0
-105 -121 0
-105 -122 0
-106 -118 0
-106 -119 0
-106 -120 0
-106 -121 0
-106 -122 0
-107 -118 0
-107 -119 0
-107 -120 0
-107 -121 0
-107 -122 0
-108 -118 0
-108 -119 0
-108 -120 0
-108 -121 0
-108 -122 0
-109 -118 0
-109 -119 0
-109 -120 0
-109 -121 0
-109 -122 0
-118 -157 0
-118 -158 0
-118 -159 0
-118 -160 0
-118 -161 0
-119 -157 0
-119 -158 0
-119 -159 0
-119 -160 0
-119 -161 0
-120 -157 0
-120 -158 0
-120 -159 0
-120 -160 0
-120 -161 0
-121 -157 0
-121 -158 0
-121 -159 0
-121 -160 0
-121 -161 0
-122 -157 0
-122 -158 0
-122 -159 0
-122 -160 0
-122 -161 0
-131 -157 0
-131 -158 0
-131 -159 0
-131 -160 0
-131 -161 0
-132 -157 0
-132 -158 0
-132 -159 0
-132 -160 0
-132 -161 0
-133 -157 0
-133 -158 0
-133 -159 0
-133 -160 0
-133 -161 0
-134 -157 0
-134 -158 0
-134 -159 0
-134 -160 0
-134 -161 0
-135 -157 0
-135 -158 0
-135 -159 0
-135 -160 0
-135 -161 0
-144 -157 0
-144 -158 0
-144 -159 0
-144 -160 0
-144 -161 0
-145 -157 0
-145 -158 0
-145 -159 0
-145 -160 0
-145 -161 0
-146 -157 0
-146 -158 0
-146 -159 0
-146 -160 0
-146 -161 0
-147 -157 0
-147 -158 0
-147 -159 0
-147 -160 0
-147 -161 0
-148 -157 0
-148 -158 0
-148 -159 0
-148 -160 0
-148 -161 0
-1 -14 0
-1 -27 0
-1 -40 0
-1 -53 0
-1 -66 0
-1 -79 0
-1 -92 0
-1 -105 0
-1 -118 0
-1 -131 0
-1 -144 0
-1 -157 0
-14 -27 0
-14 -40 0
-14 -53 0
-14 -66 0
-14 -79 0
-14 -92 0
-14 -105 0
-14 -118 0
-14 -131 0
-14 -144 0
-14 -157 0
-27 -40 0
-27 -53 0
-27 -66 0
-27 -79 0
-27 -92 0
-27 -105 0
-27 -118 0
-27 -131 0
-27 -144 0
-27 -157 0
-40 -53 0
-40 -66 0
-40 -79 0
-40 -92 0
-40 -105 0
-40 -118 0
-40 -131 0
-40 -144 0
-40 -157 0
-53 -66 0
-53 -79 0
-53 -92 0
-53 -105 0
-53 -118 0
-53 -131 0
-53 -144 0
-53 -157 0
-66 -79 0
-66 -92 0
-66 -105 0
-66 -118 0
-66 -131 0
-66 -144 0
-66 -157 0
-79 -92 0
-79 -105 0
-79 -118 0
-79 -131 0
-79 -144 0
-79 -157 0
-92 -105 0
-92 -118 0
-92 -131 0
-92 -144 0
-92 -157 0
-105 -118 0
-105 -131 0
-105 -144 0
-105 -157 0
-118 -131 0
-118 -144 0
-118 -157 0
-131 -144 0
-131 -157 0
-144 -157 0
1 14 27 40 53 66 79 92 105 118 131 144 157 0
-2 -15 0
-2 -28 0
-2 -41 0
-2 -54 0
-2 -67 0
-2 -80 0
-2 -93 0
-2 -106 0
-2 -119 0
-2 -132 0
-2 -145 0
-2 -158 0
-15 -28 0
-15 -41 0
-15 -54 0
-15 -67 0
-15 -80 0
-15 -93 0
-15 -106 0
-15 -119 0
-15 -132 0
-15 -145 0
-15 -158 0
-28 -41 0
-28 -54 0
-28 -67 0
-28 -80 0
-28 -93 0
-28 -106 0
-28 -119 0
-28 -132 0
-28 -145 0
-28 -158 0
-41 -54 0
-41 -67 0
-41 -80 0
-41 -93 0
-41 -106 0
-41 -119 0
-41 -132 0
-41 -145 0
-41 -158 0
-54 -67 0
-54 -80 0
-54 -93 0
-54 -106 0
-54 -119 0
-54 -132 0
-54 -145 0
-54 -158 0
-67 -80 0
-67 -93 0
-67 -106 0
-67 -119 0
-67 -132 0
-67 -145 0
-67 -158 0
-80 -93 0
-80 -106 0
-80 -119 0
-80 -132 0
-80 -145 0
-80 -158 0
-93 -106 0
-93 -119 0
-93 -132 0
-93 -145 0
-93 -158 0
-106 -119 0
-106 -132 0
-106 -145 0
-106 -158 0
-119 -132 0
-119 -145 0
-119 -158 0
-132 -145 0
-132 -158 0
-145 -158 0
2 15 28 41 54 67 80 93 106 119 132 145 158 0
-3 -16 0
-3 -29 0
-3 -42 0
-3 -55 0
-3 -68 0
-3 -81 0
-3 -94 0
-3 -107 0
-3 -120 0
-3 -133 0
-3 -146 0
-3 -159 0
-16 -29 0
-16 -42 0
-16 -55 0
-16 -68 0
-16 -81 0
-16 -94 0
-16 -107 0
-16 -120 0
-16 -133 0
-16 -146 0
-16 -159 0
-29 -42 0
-29 -55 0
-29 -68 0
-29 -81 0
-29 -94 0
-29 -107 0
-29 -120 0
-29 -133 0
-29 -146 0
-29 -159 0
-42 -55 0
-42 -68 0
-42 -81 0
-42 -94 0
-42 -107 0
-42 -120 0
-42 -133 0
-42 -146 0
-42 -159 0
-55 -68 0
-55 -81 0
-55 -94 0
-55 -107 0
-55 -120 0
-55 -133 0
-55 -146 0
-55 -159 0
-68 -81 0
-68 -94 0
-68 -107 0
-68 -120 0
-68 -133 0
-68 -146 0
-68 -159 0
-81 -94 0
-81 -107 0
-81 -120 0
-81 -133 0
-81 -146 0
-81 -159 0
-94 -107 0
-94 -120 0
-94 -133 0
-94 -146 0
-94 -159 0
-107 -120 0
-107 -133 0
-107 -146 0
-107 -159 0
-120 -133 0
-120 -146 0
-120 -159 0
-133 -146 0
-133 -159 0
-146 -159 0
3 16 29 42 55 68 81 94 107 120 133 146 159 0
-4 -17 0
-4 -30 0
-4 -43 0
-4 -56 0
-4 -69 0
-4 -82 0
-4 -95 0
-4 -108 0
-4 -121 0
-4 -134 0
-4 -147 0
-4 -160 0
-17 -30 0
-17 -43 0
-17 -56 0
-17 -69 0
-17 -82 0
-17 -95 0
-17 -108 0
-17 -121 0
-17 -134 0
-17 -147 0
-17 -160 0
-30 -43 0
-30 -56 0
-30 -69 0
-30 -82 0
-30 -95 0
-30 -108 0
-30 -121 0
-30 -134 0
-30 -147 0
-30 -160 0
-43 -56 0
-43 -69 0
-43 -82 0
-43 -95 0
-43 -108 0
-43 -121 0
-43 -134 0
-43 -147 0
-43 -160 0
-56 -69 0
-56 -82 0
-56 -95 0
-56 -108 0
-56 -121 0
-56 -134 0
-56 -147 0
-56 -160 0
-69 -82 0
-69 -95 0
-69 -108 0
-69 -121 0
-69 -134 0
-69 -147 0
-69 -160 0
-82 -95 0
-82 -108 0
-82 -121 0
-82 -134 0
-82 -147 0
-82 -160 0
-95 -108 0
-95 -121 0
-95 -134 0
-95 -147 0
-95 -160 0
-108 -121 0
-108 -134 0
-108 -147 0
-108 -160 0
-121 -134 0
-121 -147 0
-121 -160 0
-134 -147 0
-134 -160 0
-147 -160 0
4 17 30 43 56 69 82 95 108 121 134 147 160 0
-5 -18 0
-5 -31 0
-5 -44 0
-5 -57 0
-5 -70 0
-5 -83 0
-5 -96 0
-5 -109 0
-5 -122 0
-5 -135 0
-5 -148 0
-5 -161 0
-18 -31 0
-18 -44 0
-18 -57 0
-18 -70 0
-18 -83 0
-18 -96 0
-18 -109 0
-18 -122 0
-18 -135 0
-18 -148 0
-18 -161 0
-31 -44 0
-31 -57 0
-31 -70 0
-31 -83 0
-31 -96 0
-31 -109 0
-31 -122 0
-31 -135 0
-31 -148 0
-31 -161 0
-44 -57 0
-44 -70 0
-44 -83 0
-44 -96 0
-44 -109 0
-44 -122 0
-44 -135 0
-44 -148 0
-44 -161 0
-57 -70 0
-57 -83 0
-57 -96 0
-57 -109 0
-57 -122 0
-57 -135 0
-57 -148 0
-57 -161 0
-70 -83 0
-70 -96 0
-70 -109 0
-70 -122 0
-70 -135 0
-70 -148 0
-70 -161 0
-83 -96 0
-83 -109 0
-83 -122 0
-83 -135 0
-83 -148 0
-83 -161 0
-96 -109 0
-96 -122 0
-96 -135 0
-96 -148 0
-96 -161 0
-109 -122 0
-109 -135 0
-109 -148 0
-109 -161 0
-122 -135 0
-122 -148 0
-122 -161 0
-135 -148 0
-135 -161 0
-148 -161 0
5 18 31 44 57 70 83 96 109 122 135 148 161 0
-1 -2 0
-1 -3 0
-1 -4 0
-1 -5 0
-2 -3 0
-2 -4 0
-2 -5 0
-3 -4 0
-3 -5 0
-4 -5 0
-14 -15 0
-14 -16 0
-14 -17 0
-14 -18 0
-15 -16 0
-15 -17 0
-15 -18 0
-16 -17 0
-16 -18 0
-17 -18 0
-27 -28 0
-27 -29 0
-27 -30 0
-27 -31 0
-28 -29 0
-28 -30 0
-28 -31 0
-29 -30 0
-29 -31 0
-30 -31 0
-40 -41 0
-40 -42 0
-40 -43 0
-40 -44 0
-41 -42 0
-41 -43 0
-41 -44 0
-42 -43 0
-42 -44 0
-43 -44 0
-53 -54 0
-53 -55 0
-53 -56 0
-53 -57 0
-54 -55 0
-54 -56 0
-54 -57 0
-55 -56 0
-55 -57 0
-56 -57 0
-66 -67 0
-66 -68 0
-66 -69 0
-66 -70 0
-67 -68 0
-67 -69 0
-67 -70 0
-68 -69 0
-68 -70 0
-69 -70 0
-79 -80 0
-79 -81 0
-79 -82 0
-79 -83 0
-80 -81 0
-80 -82 0
-80 -83 0
-81 -82 0
-81 -83 0
-82 -83 0
-92 -93 0
-92 -94 0
-92 -95 0
-92 -96 0
-93 -94 0
-93 -95 0
-93 -96 0
-94 -95 0
-94 -96 0
-95 -96 0
-105 -106 0
-105 -107 0
-105 -108 0
-105 -109 0
-106 -107 0
-106 -108 0
-106 -109 0
-107 -108 0
-107 -109 0
-108 -109 0
-118 -119 0
-118 -120 0
-118 -121 0
-118 -122 0
-119 -120 0
-119 -121 0
-119 -122 0
-120 -121 0
-120 -122 0
-121 -122 0
-131 -132 0
-131 -133 0
-131 -134 0
-131 -135 0
-132 -133 0
-132 -134 0
-132 -135 0
-133 -134 0
-133 -135 0
-134 -135 0
-144 -145 0
-144 -146 0
-144 -147 0
-144 -148 0
-145 -146 0
-145 -147 0
-145 -148 0
-146 -147 0
-146 -148 0
-147 -148 0
-157 -158 0
-157 -159 0
-157 -160 0
-157 -161 0
-158 -159 0
-158 -160 0
-158 -161 0
-159 -160 0
-159 -161 0
-160 -161 0
